c created by edge2cnf
p cnf 500 3100
-1 -2 0
-1 -3 0
-1 -4 0
-1 -5 0
-2 -3 0
-2 -4 0
-2 -5 0
-3 -4 0
-3 -5 0
-4 -5 0
1 2 3 4 5 0
-6 -7 0
-6 -8 0
-6 -9 0
-6 -10 0
-7 -8 0
-7 -9 0
-7 -10 0
-8 -9 0
-8 -10 0
-9 -10 0
6 7 8 9 10 0
-11 -12 0
-11 -13 0
-11 -14 0
-11 -15 0
-12 -13 0
-12 -14 0
-12 -15 0
-13 -14 0
-13 -15 0
-14 -15 0
11 12 13 14 15 0
-16 -17 0
-16 -18 0
-16 -19 0
-16 -20 0
-17 -18 0
-17 -19 0
-17 -20 0
-18 -19 0
-18 -20 0
-19 -20 0
16 17 18 19 20 0
-21 -22 0
-21 -23 0
-21 -24 0
-21 -25 0
-22 -23 0
-22 -24 0
-22 -25 0
-23 -24 0
-23 -25 0
-24 -25 0
21 22 23 24 25 0
-26 -27 0
-26 -28 0
-26 -29 0
-26 -30 0
-27 -28 0
-27 -29 0
-27 -30 0
-28 -29 0
-28 -30 0
-29 -30 0
26 27 28 29 30 0
-31 -32 0
-31 -33 0
-31 -34 0
-31 -35 0
-32 -33 0
-32 -34 0
-32 -35 0
-33 -34 0
-33 -35 0
-34 -35 0
31 32 33 34 35 0
-36 -37 0
-36 -38 0
-36 -39 0
-36 -40 0
-37 -38 0
-37 -39 0
-37 -40 0
-38 -39 0
-38 -40 0
-39 -40 0
36 37 38 39 40 0
-41 -42 0
-41 -43 0
-41 -44 0
-41 -45 0
-42 -43 0
-42 -44 0
-42 -45 0
-43 -44 0
-43 -45 0
-44 -45 0
41 42 43 44 45 0
-46 -47 0
-46 -48 0
-46 -49 0
-46 -50 0
-47 -48 0
-47 -49 0
-47 -50 0
-48 -49 0
-48 -50 0
-49 -50 0
46 47 48 49 50 0
-51 -52 0
-51 -53 0
-51 -54 0
-51 -55 0
-52 -53 0
-52 -54 0
-52 -55 0
-53 -54 0
-53 -55 0
-54 -55 0
51 52 53 54 55 0
-56 -57 0
-56 -58 0
-56 -59 0
-56 -60 0
-57 -58 0
-57 -59 0
-57 -60 0
-58 -59 0
-58 -60 0
-59 -60 0
56 57 58 59 60 0
-61 -62 0
-61 -63 0
-61 -64 0
-61 -65 0
-62 -63 0
-62 -64 0
-62 -65 0
-63 -64 0
-63 -65 0
-64 -65 0
61 62 63 64 65 0
-66 -67 0
-66 -68 0
-66 -69 0
-66 -70 0
-67 -68 0
-67 -69 0
-67 -70 0
-68 -69 0
-68 -70 0
-69 -70 0
66 67 68 69 70 0
-71 -72 0
-71 -73 0
-71 -74 0
-71 -75 0
-72 -73 0
-72 -74 0
-72 -75 0
-73 -74 0
-73 -75 0
-74 -75 0
71 72 73 74 75 0
-76 -77 0
-76 -78 0
-76 -79 0
-76 -80 0
-77 -78 0
-77 -79 0
-77 -80 0
-78 -79 0
-78 -80 0
-79 -80 0
76 77 78 79 80 0
-81 -82 0
-81 -83 0
-81 -84 0
-81 -85 0
-82 -83 0
-82 -84 0
-82 -85 0
-83 -84 0
-83 -85 0
-84 -85 0
81 82 83 84 85 0
-86 -87 0
-86 -88 0
-86 -89 0
-86 -90 0
-87 -88 0
-87 -89 0
-87 -90 0
-88 -89 0
-88 -90 0
-89 -90 0
86 87 88 89 90 0
-91 -92 0
-91 -93 0
-91 -94 0
-91 -95 0
-92 -93 0
-92 -94 0
-92 -95 0
-93 -94 0
-93 -95 0
-94 -95 0
91 92 93 94 95 0
-96 -97 0
-96 -98 0
-96 -99 0
-96 -100 0
-97 -98 0
-97 -99 0
-97 -100 0
-98 -99 0
-98 -100 0
-99 -100 0
96 97 98 99 100 0
-101 -102 0
-101 -103 0
-101 -104 0
-101 -105 0
-102 -103 0
-102 -104 0
-102 -105 0
-103 -104 0
-103 -105 0
-104 -105 0
101 102 103 104 105 0
-106 -107 0
-106 -108 0
-106 -109 0
-106 -110 0
-107 -108 0
-107 -109 0
-107 -110 0
-108 -109 0
-108 -110 0
-109 -110 0
106 107 108 109 110 0
-111 -112 0
-111 -113 0
-111 -114 0
-111 -115 0
-112 -113 0
-112 -114 0
-112 -115 0
-113 -114 0
-113 -115 0
-114 -115 0
111 112 113 114 115 0
-116 -117 0
-116 -118 0
-116 -119 0
-116 -120 0
-117 -118 0
-117 -119 0
-117 -120 0
-118 -119 0
-118 -120 0
-119 -120 0
116 117 118 119 120 0
-121 -122 0
-121 -123 0
-121 -124 0
-121 -125 0
-122 -123 0
-122 -124 0
-122 -125 0
-123 -124 0
-123 -125 0
-124 -125 0
121 122 123 124 125 0
-126 -127 0
-126 -128 0
-126 -129 0
-126 -130 0
-127 -128 0
-127 -129 0
-127 -130 0
-128 -129 0
-128 -130 0
-129 -130 0
126 127 128 129 130 0
-131 -132 0
-131 -133 0
-131 -134 0
-131 -135 0
-132 -133 0
-132 -134 0
-132 -135 0
-133 -134 0
-133 -135 0
-134 -135 0
131 132 133 134 135 0
-136 -137 0
-136 -138 0
-136 -139 0
-136 -140 0
-137 -138 0
-137 -139 0
-137 -140 0
-138 -139 0
-138 -140 0
-139 -140 0
136 137 138 139 140 0
-141 -142 0
-141 -143 0
-141 -144 0
-141 -145 0
-142 -143 0
-142 -144 0
-142 -145 0
-143 -144 0
-143 -145 0
-144 -145 0
141 142 143 144 145 0
-146 -147 0
-146 -148 0
-146 -149 0
-146 -150 0
-147 -148 0
-147 -149 0
-147 -150 0
-148 -149 0
-148 -150 0
-149 -150 0
146 147 148 149 150 0
-151 -152 0
-151 -153 0
-151 -154 0
-151 -155 0
-152 -153 0
-152 -154 0
-152 -155 0
-153 -154 0
-153 -155 0
-154 -155 0
151 152 153 154 155 0
-156 -157 0
-156 -158 0
-156 -159 0
-156 -160 0
-157 -158 0
-157 -159 0
-157 -160 0
-158 -159 0
-158 -160 0
-159 -160 0
156 157 158 159 160 0
-161 -162 0
-161 -163 0
-161 -164 0
-161 -165 0
-162 -163 0
-162 -164 0
-162 -165 0
-163 -164 0
-163 -165 0
-164 -165 0
161 162 163 164 165 0
-166 -167 0
-166 -168 0
-166 -169 0
-166 -170 0
-167 -168 0
-167 -169 0
-167 -170 0
-168 -169 0
-168 -170 0
-169 -170 0
166 167 168 169 170 0
-171 -172 0
-171 -173 0
-171 -174 0
-171 -175 0
-172 -173 0
-172 -174 0
-172 -175 0
-173 -174 0
-173 -175 0
-174 -175 0
171 172 173 174 175 0
-176 -177 0
-176 -178 0
-176 -179 0
-176 -180 0
-177 -178 0
-177 -179 0
-177 -180 0
-178 -179 0
-178 -180 0
-179 -180 0
176 177 178 179 180 0
-181 -182 0
-181 -183 0
-181 -184 0
-181 -185 0
-182 -183 0
-182 -184 0
-182 -185 0
-183 -184 0
-183 -185 0
-184 -185 0
181 182 183 184 185 0
-186 -187 0
-186 -188 0
-186 -189 0
-186 -190 0
-187 -188 0
-187 -189 0
-187 -190 0
-188 -189 0
-188 -190 0
-189 -190 0
186 187 188 189 190 0
-191 -192 0
-191 -193 0
-191 -194 0
-191 -195 0
-192 -193 0
-192 -194 0
-192 -195 0
-193 -194 0
-193 -195 0
-194 -195 0
191 192 193 194 195 0
-196 -197 0
-196 -198 0
-196 -199 0
-196 -200 0
-197 -198 0
-197 -199 0
-197 -200 0
-198 -199 0
-198 -200 0
-199 -200 0
196 197 198 199 200 0
-201 -202 0
-201 -203 0
-201 -204 0
-201 -205 0
-202 -203 0
-202 -204 0
-202 -205 0
-203 -204 0
-203 -205 0
-204 -205 0
201 202 203 204 205 0
-206 -207 0
-206 -208 0
-206 -209 0
-206 -210 0
-207 -208 0
-207 -209 0
-207 -210 0
-208 -209 0
-208 -210 0
-209 -210 0
206 207 208 209 210 0
-211 -212 0
-211 -213 0
-211 -214 0
-211 -215 0
-212 -213 0
-212 -214 0
-212 -215 0
-213 -214 0
-213 -215 0
-214 -215 0
211 212 213 214 215 0
-216 -217 0
-216 -218 0
-216 -219 0
-216 -220 0
-217 -218 0
-217 -219 0
-217 -220 0
-218 -219 0
-218 -220 0
-219 -220 0
216 217 218 219 220 0
-221 -222 0
-221 -223 0
-221 -224 0
-221 -225 0
-222 -223 0
-222 -224 0
-222 -225 0
-223 -224 0
-223 -225 0
-224 -225 0
221 222 223 224 225 0
-226 -227 0
-226 -228 0
-226 -229 0
-226 -230 0
-227 -228 0
-227 -229 0
-227 -230 0
-228 -229 0
-228 -230 0
-229 -230 0
226 227 228 229 230 0
-231 -232 0
-231 -233 0
-231 -234 0
-231 -235 0
-232 -233 0
-232 -234 0
-232 -235 0
-233 -234 0
-233 -235 0
-234 -235 0
231 232 233 234 235 0
-236 -237 0
-236 -238 0
-236 -239 0
-236 -240 0
-237 -238 0
-237 -239 0
-237 -240 0
-238 -239 0
-238 -240 0
-239 -240 0
236 237 238 239 240 0
-241 -242 0
-241 -243 0
-241 -244 0
-241 -245 0
-242 -243 0
-242 -244 0
-242 -245 0
-243 -244 0
-243 -245 0
-244 -245 0
241 242 243 244 245 0
-246 -247 0
-246 -248 0
-246 -249 0
-246 -250 0
-247 -248 0
-247 -249 0
-247 -250 0
-248 -249 0
-248 -250 0
-249 -250 0
246 247 248 249 250 0
-251 -252 0
-251 -253 0
-251 -254 0
-251 -255 0
-252 -253 0
-252 -254 0
-252 -255 0
-253 -254 0
-253 -255 0
-254 -255 0
251 252 253 254 255 0
-256 -257 0
-256 -258 0
-256 -259 0
-256 -260 0
-257 -258 0
-257 -259 0
-257 -260 0
-258 -259 0
-258 -260 0
-259 -260 0
256 257 258 259 260 0
-261 -262 0
-261 -263 0
-261 -264 0
-261 -265 0
-262 -263 0
-262 -264 0
-262 -265 0
-263 -264 0
-263 -265 0
-264 -265 0
261 262 263 264 265 0
-266 -267 0
-266 -268 0
-266 -269 0
-266 -270 0
-267 -268 0
-267 -269 0
-267 -270 0
-268 -269 0
-268 -270 0
-269 -270 0
266 267 268 269 270 0
-271 -272 0
-271 -273 0
-271 -274 0
-271 -275 0
-272 -273 0
-272 -274 0
-272 -275 0
-273 -274 0
-273 -275 0
-274 -275 0
271 272 273 274 275 0
-276 -277 0
-276 -278 0
-276 -279 0
-276 -280 0
-277 -278 0
-277 -279 0
-277 -280 0
-278 -279 0
-278 -280 0
-279 -280 0
276 277 278 279 280 0
-281 -282 0
-281 -283 0
-281 -284 0
-281 -285 0
-282 -283 0
-282 -284 0
-282 -285 0
-283 -284 0
-283 -285 0
-284 -285 0
281 282 283 284 285 0
-286 -287 0
-286 -288 0
-286 -289 0
-286 -290 0
-287 -288 0
-287 -289 0
-287 -290 0
-288 -289 0
-288 -290 0
-289 -290 0
286 287 288 289 290 0
-291 -292 0
-291 -293 0
-291 -294 0
-291 -295 0
-292 -293 0
-292 -294 0
-292 -295 0
-293 -294 0
-293 -295 0
-294 -295 0
291 292 293 294 295 0
-296 -297 0
-296 -298 0
-296 -299 0
-296 -300 0
-297 -298 0
-297 -299 0
-297 -300 0
-298 -299 0
-298 -300 0
-299 -300 0
296 297 298 299 300 0
-301 -302 0
-301 -303 0
-301 -304 0
-301 -305 0
-302 -303 0
-302 -304 0
-302 -305 0
-303 -304 0
-303 -305 0
-304 -305 0
301 302 303 304 305 0
-306 -307 0
-306 -308 0
-306 -309 0
-306 -310 0
-307 -308 0
-307 -309 0
-307 -310 0
-308 -309 0
-308 -310 0
-309 -310 0
306 307 308 309 310 0
-311 -312 0
-311 -313 0
-311 -314 0
-311 -315 0
-312 -313 0
-312 -314 0
-312 -315 0
-313 -314 0
-313 -315 0
-314 -315 0
311 312 313 314 315 0
-316 -317 0
-316 -318 0
-316 -319 0
-316 -320 0
-317 -318 0
-317 -319 0
-317 -320 0
-318 -319 0
-318 -320 0
-319 -320 0
316 317 318 319 320 0
-321 -322 0
-321 -323 0
-321 -324 0
-321 -325 0
-322 -323 0
-322 -324 0
-322 -325 0
-323 -324 0
-323 -325 0
-324 -325 0
321 322 323 324 325 0
-326 -327 0
-326 -328 0
-326 -329 0
-326 -330 0
-327 -328 0
-327 -329 0
-327 -330 0
-328 -329 0
-328 -330 0
-329 -330 0
326 327 328 329 330 0
-331 -332 0
-331 -333 0
-331 -334 0
-331 -335 0
-332 -333 0
-332 -334 0
-332 -335 0
-333 -334 0
-333 -335 0
-334 -335 0
331 332 333 334 335 0
-336 -337 0
-336 -338 0
-336 -339 0
-336 -340 0
-337 -338 0
-337 -339 0
-337 -340 0
-338 -339 0
-338 -340 0
-339 -340 0
336 337 338 339 340 0
-341 -342 0
-341 -343 0
-341 -344 0
-341 -345 0
-342 -343 0
-342 -344 0
-342 -345 0
-343 -344 0
-343 -345 0
-344 -345 0
341 342 343 344 345 0
-346 -347 0
-346 -348 0
-346 -349 0
-346 -350 0
-347 -348 0
-347 -349 0
-347 -350 0
-348 -349 0
-348 -350 0
-349 -350 0
346 347 348 349 350 0
-351 -352 0
-351 -353 0
-351 -354 0
-351 -355 0
-352 -353 0
-352 -354 0
-352 -355 0
-353 -354 0
-353 -355 0
-354 -355 0
351 352 353 354 355 0
-356 -357 0
-356 -358 0
-356 -359 0
-356 -360 0
-357 -358 0
-357 -359 0
-357 -360 0
-358 -359 0
-358 -360 0
-359 -360 0
356 357 358 359 360 0
-361 -362 0
-361 -363 0
-361 -364 0
-361 -365 0
-362 -363 0
-362 -364 0
-362 -365 0
-363 -364 0
-363 -365 0
-364 -365 0
361 362 363 364 365 0
-366 -367 0
-366 -368 0
-366 -369 0
-366 -370 0
-367 -368 0
-367 -369 0
-367 -370 0
-368 -369 0
-368 -370 0
-369 -370 0
366 367 368 369 370 0
-371 -372 0
-371 -373 0
-371 -374 0
-371 -375 0
-372 -373 0
-372 -374 0
-372 -375 0
-373 -374 0
-373 -375 0
-374 -375 0
371 372 373 374 375 0
-376 -377 0
-376 -378 0
-376 -379 0
-376 -380 0
-377 -378 0
-377 -379 0
-377 -380 0
-378 -379 0
-378 -380 0
-379 -380 0
376 377 378 379 380 0
-381 -382 0
-381 -383 0
-381 -384 0
-381 -385 0
-382 -383 0
-382 -384 0
-382 -385 0
-383 -384 0
-383 -385 0
-384 -385 0
381 382 383 384 385 0
-386 -387 0
-386 -388 0
-386 -389 0
-386 -390 0
-387 -388 0
-387 -389 0
-387 -390 0
-388 -389 0
-388 -390 0
-389 -390 0
386 387 388 389 390 0
-391 -392 0
-391 -393 0
-391 -394 0
-391 -395 0
-392 -393 0
-392 -394 0
-392 -395 0
-393 -394 0
-393 -395 0
-394 -395 0
391 392 393 394 395 0
-396 -397 0
-396 -398 0
-396 -399 0
-396 -400 0
-397 -398 0
-397 -399 0
-397 -400 0
-398 -399 0
-398 -400 0
-399 -400 0
396 397 398 399 400 0
-401 -402 0
-401 -403 0
-401 -404 0
-401 -405 0
-402 -403 0
-402 -404 0
-402 -405 0
-403 -404 0
-403 -405 0
-404 -405 0
401 402 403 404 405 0
-406 -407 0
-406 -408 0
-406 -409 0
-406 -410 0
-407 -408 0
-407 -409 0
-407 -410 0
-408 -409 0
-408 -410 0
-409 -410 0
406 407 408 409 410 0
-411 -412 0
-411 -413 0
-411 -414 0
-411 -415 0
-412 -413 0
-412 -414 0
-412 -415 0
-413 -414 0
-413 -415 0
-414 -415 0
411 412 413 414 415 0
-416 -417 0
-416 -418 0
-416 -419 0
-416 -420 0
-417 -418 0
-417 -419 0
-417 -420 0
-418 -419 0
-418 -420 0
-419 -420 0
416 417 418 419 420 0
-421 -422 0
-421 -423 0
-421 -424 0
-421 -425 0
-422 -423 0
-422 -424 0
-422 -425 0
-423 -424 0
-423 -425 0
-424 -425 0
421 422 423 424 425 0
-426 -427 0
-426 -428 0
-426 -429 0
-426 -430 0
-427 -428 0
-427 -429 0
-427 -430 0
-428 -429 0
-428 -430 0
-429 -430 0
426 427 428 429 430 0
-431 -432 0
-431 -433 0
-431 -434 0
-431 -435 0
-432 -433 0
-432 -434 0
-432 -435 0
-433 -434 0
-433 -435 0
-434 -435 0
431 432 433 434 435 0
-436 -437 0
-436 -438 0
-436 -439 0
-436 -440 0
-437 -438 0
-437 -439 0
-437 -440 0
-438 -439 0
-438 -440 0
-439 -440 0
436 437 438 439 440 0
-441 -442 0
-441 -443 0
-441 -444 0
-441 -445 0
-442 -443 0
-442 -444 0
-442 -445 0
-443 -444 0
-443 -445 0
-444 -445 0
441 442 443 444 445 0
-446 -447 0
-446 -448 0
-446 -449 0
-446 -450 0
-447 -448 0
-447 -449 0
-447 -450 0
-448 -449 0
-448 -450 0
-449 -450 0
446 447 448 449 450 0
-451 -452 0
-451 -453 0
-451 -454 0
-451 -455 0
-452 -453 0
-452 -454 0
-452 -455 0
-453 -454 0
-453 -455 0
-454 -455 0
451 452 453 454 455 0
-456 -457 0
-456 -458 0
-456 -459 0
-456 -460 0
-457 -458 0
-457 -459 0
-457 -460 0
-458 -459 0
-458 -460 0
-459 -460 0
456 457 458 459 460 0
-461 -462 0
-461 -463 0
-461 -464 0
-461 -465 0
-462 -463 0
-462 -464 0
-462 -465 0
-463 -464 0
-463 -465 0
-464 -465 0
461 462 463 464 465 0
-466 -467 0
-466 -468 0
-466 -469 0
-466 -470 0
-467 -468 0
-467 -469 0
-467 -470 0
-468 -469 0
-468 -470 0
-469 -470 0
466 467 468 469 470 0
-471 -472 0
-471 -473 0
-471 -474 0
-471 -475 0
-472 -473 0
-472 -474 0
-472 -475 0
-473 -474 0
-473 -475 0
-474 -475 0
471 472 473 474 475 0
-476 -477 0
-476 -478 0
-476 -479 0
-476 -480 0
-477 -478 0
-477 -479 0
-477 -480 0
-478 -479 0
-478 -480 0
-479 -480 0
476 477 478 479 480 0
-481 -482 0
-481 -483 0
-481 -484 0
-481 -485 0
-482 -483 0
-482 -484 0
-482 -485 0
-483 -484 0
-483 -485 0
-484 -485 0
481 482 483 484 485 0
-486 -487 0
-486 -488 0
-486 -489 0
-486 -490 0
-487 -488 0
-487 -489 0
-487 -490 0
-488 -489 0
-488 -490 0
-489 -490 0
486 487 488 489 490 0
-491 -492 0
-491 -493 0
-491 -494 0
-491 -495 0
-492 -493 0
-492 -494 0
-492 -495 0
-493 -494 0
-493 -495 0
-494 -495 0
491 492 493 494 495 0
-496 -497 0
-496 -498 0
-496 -499 0
-496 -500 0
-497 -498 0
-497 -499 0
-497 -500 0
-498 -499 0
-498 -500 0
-499 -500 0
496 497 498 499 500 0
-26 -31 0
-27 -32 0
-28 -33 0
-29 -34 0
-30 -35 0
-36 -51 0
-37 -52 0
-38 -53 0
-39 -54 0
-40 -55 0
-36 -56 0
-37 -57 0
-38 -58 0
-39 -59 0
-40 -60 0
-46 -66 0
-47 -67 0
-48 -68 0
-49 -69 0
-50 -70 0
-56 -71 0
-57 -72 0
-58 -73 0
-59 -74 0
-60 -75 0
-61 -76 0
-62 -77 0
-63 -78 0
-64 -79 0
-65 -80 0
-81 -96 0
-82 -97 0
-83 -98 0
-84 -99 0
-85 -100 0
-121 -136 0
-122 -137 0
-123 -138 0
-124 -139 0
-125 -140 0
-166 -186 0
-167 -187 0
-168 -188 0
-169 -189 0
-170 -190 0
-196 -206 0
-197 -207 0
-198 -208 0
-199 -209 0
-200 -210 0
-201 -216 0
-202 -217 0
-203 -218 0
-204 -219 0
-205 -220 0
-211 -216 0
-212 -217 0
-213 -218 0
-214 -219 0
-215 -220 0
-211 -226 0
-212 -227 0
-213 -228 0
-214 -229 0
-215 -230 0
-241 -251 0
-242 -252 0
-243 -253 0
-244 -254 0
-245 -255 0
-241 -256 0
-242 -257 0
-243 -258 0
-244 -259 0
-245 -260 0
-306 -316 0
-307 -317 0
-308 -318 0
-309 -319 0
-310 -320 0
-311 -316 0
-312 -317 0
-313 -318 0
-314 -319 0
-315 -320 0
-316 -336 0
-317 -337 0
-318 -338 0
-319 -339 0
-320 -340 0
-321 -336 0
-322 -337 0
-323 -338 0
-324 -339 0
-325 -340 0
-341 -356 0
-342 -357 0
-343 -358 0
-344 -359 0
-345 -360 0
-361 -376 0
-362 -377 0
-363 -378 0
-364 -379 0
-365 -380 0
-366 -376 0
-367 -377 0
-368 -378 0
-369 -379 0
-370 -380 0
-376 -386 0
-377 -387 0
-378 -388 0
-379 -389 0
-380 -390 0
-401 -416 0
-402 -417 0
-403 -418 0
-404 -419 0
-405 -420 0
-411 -416 0
-412 -417 0
-413 -418 0
-414 -419 0
-415 -420 0
-416 -431 0
-417 -432 0
-418 -433 0
-419 -434 0
-420 -435 0
-441 -451 0
-442 -452 0
-443 -453 0
-444 -454 0
-445 -455 0
-446 -461 0
-447 -462 0
-448 -463 0
-449 -464 0
-450 -465 0
-476 -496 0
-477 -497 0
-478 -498 0
-479 -499 0
-480 -500 0
-1 -486 0
-2 -487 0
-3 -488 0
-4 -489 0
-5 -490 0
-1 -26 0
-2 -27 0
-3 -28 0
-4 -29 0
-5 -30 0
-1 -36 0
-2 -37 0
-3 -38 0
-4 -39 0
-5 -40 0
-1 -41 0
-2 -42 0
-3 -43 0
-4 -44 0
-5 -45 0
-1 -181 0
-2 -182 0
-3 -183 0
-4 -184 0
-5 -185 0
-1 -236 0
-2 -237 0
-3 -238 0
-4 -239 0
-5 -240 0
-1 -321 0
-2 -322 0
-3 -323 0
-4 -324 0
-5 -325 0
-1 -386 0
-2 -387 0
-3 -388 0
-4 -389 0
-5 -390 0
-6 -66 0
-7 -67 0
-8 -68 0
-9 -69 0
-10 -70 0
-6 -126 0
-7 -127 0
-8 -128 0
-9 -129 0
-10 -130 0
-6 -151 0
-7 -152 0
-8 -153 0
-9 -154 0
-10 -155 0
-6 -171 0
-7 -172 0
-8 -173 0
-9 -174 0
-10 -175 0
-6 -216 0
-7 -217 0
-8 -218 0
-9 -219 0
-10 -220 0
-6 -296 0
-7 -297 0
-8 -298 0
-9 -299 0
-10 -300 0
-6 -321 0
-7 -322 0
-8 -323 0
-9 -324 0
-10 -325 0
-6 -331 0
-7 -332 0
-8 -333 0
-9 -334 0
-10 -335 0
-6 -466 0
-7 -467 0
-8 -468 0
-9 -469 0
-10 -470 0
-11 -116 0
-12 -117 0
-13 -118 0
-14 -119 0
-15 -120 0
-11 -156 0
-12 -157 0
-13 -158 0
-14 -159 0
-15 -160 0
-11 -171 0
-12 -172 0
-13 -173 0
-14 -174 0
-15 -175 0
-11 -221 0
-12 -222 0
-13 -223 0
-14 -224 0
-15 -225 0
-11 -341 0
-12 -342 0
-13 -343 0
-14 -344 0
-15 -345 0
-11 -471 0
-12 -472 0
-13 -473 0
-14 -474 0
-15 -475 0
-16 -141 0
-17 -142 0
-18 -143 0
-19 -144 0
-20 -145 0
-16 -416 0
-17 -417 0
-18 -418 0
-19 -419 0
-20 -420 0
-21 -86 0
-22 -87 0
-23 -88 0
-24 -89 0
-25 -90 0
-21 -181 0
-22 -182 0
-23 -183 0
-24 -184 0
-25 -185 0
-21 -196 0
-22 -197 0
-23 -198 0
-24 -199 0
-25 -200 0
-21 -331 0
-22 -332 0
-23 -333 0
-24 -334 0
-25 -335 0
-21 -371 0
-22 -372 0
-23 -373 0
-24 -374 0
-25 -375 0
-21 -456 0
-22 -457 0
-23 -458 0
-24 -459 0
-25 -460 0
-21 -471 0
-22 -472 0
-23 -473 0
-24 -474 0
-25 -475 0
-26 -116 0
-27 -117 0
-28 -118 0
-29 -119 0
-30 -120 0
-26 -211 0
-27 -212 0
-28 -213 0
-29 -214 0
-30 -215 0
-26 -231 0
-27 -232 0
-28 -233 0
-29 -234 0
-30 -235 0
-26 -251 0
-27 -252 0
-28 -253 0
-29 -254 0
-30 -255 0
-26 -356 0
-27 -357 0
-28 -358 0
-29 -359 0
-30 -360 0
-31 -66 0
-32 -67 0
-33 -68 0
-34 -69 0
-35 -70 0
-31 -101 0
-32 -102 0
-33 -103 0
-34 -104 0
-35 -105 0
-31 -121 0
-32 -122 0
-33 -123 0
-34 -124 0
-35 -125 0
-31 -146 0
-32 -147 0
-33 -148 0
-34 -149 0
-35 -150 0
-31 -171 0
-32 -172 0
-33 -173 0
-34 -174 0
-35 -175 0
-31 -201 0
-32 -202 0
-33 -203 0
-34 -204 0
-35 -205 0
-31 -236 0
-32 -237 0
-33 -238 0
-34 -239 0
-35 -240 0
-31 -266 0
-32 -267 0
-33 -268 0
-34 -269 0
-35 -270 0
-31 -271 0
-32 -272 0
-33 -273 0
-34 -274 0
-35 -275 0
-31 -401 0
-32 -402 0
-33 -403 0
-34 -404 0
-35 -405 0
-31 -456 0
-32 -457 0
-33 -458 0
-34 -459 0
-35 -460 0
-31 -476 0
-32 -477 0
-33 -478 0
-34 -479 0
-35 -480 0
-36 -101 0
-37 -102 0
-38 -103 0
-39 -104 0
-40 -105 0
-36 -171 0
-37 -172 0
-38 -173 0
-39 -174 0
-40 -175 0
-36 -176 0
-37 -177 0
-38 -178 0
-39 -179 0
-40 -180 0
-36 -226 0
-37 -227 0
-38 -228 0
-39 -229 0
-40 -230 0
-36 -331 0
-37 -332 0
-38 -333 0
-39 -334 0
-40 -335 0
-36 -346 0
-37 -347 0
-38 -348 0
-39 -349 0
-40 -350 0
-36 -406 0
-37 -407 0
-38 -408 0
-39 -409 0
-40 -410 0
-41 -101 0
-42 -102 0
-43 -103 0
-44 -104 0
-45 -105 0
-41 -211 0
-42 -212 0
-43 -213 0
-44 -214 0
-45 -215 0
-41 -216 0
-42 -217 0
-43 -218 0
-44 -219 0
-45 -220 0
-41 -346 0
-42 -347 0
-43 -348 0
-44 -349 0
-45 -350 0
-41 -356 0
-42 -357 0
-43 -358 0
-44 -359 0
-45 -360 0
-41 -401 0
-42 -402 0
-43 -403 0
-44 -404 0
-45 -405 0
-41 -416 0
-42 -417 0
-43 -418 0
-44 -419 0
-45 -420 0
-41 -421 0
-42 -422 0
-43 -423 0
-44 -424 0
-45 -425 0
-41 -481 0
-42 -482 0
-43 -483 0
-44 -484 0
-45 -485 0
-46 -76 0
-47 -77 0
-48 -78 0
-49 -79 0
-50 -80 0
-46 -146 0
-47 -147 0
-48 -148 0
-49 -149 0
-50 -150 0
-46 -201 0
-47 -202 0
-48 -203 0
-49 -204 0
-50 -205 0
-46 -231 0
-47 -232 0
-48 -233 0
-49 -234 0
-50 -235 0
-51 -101 0
-52 -102 0
-53 -103 0
-54 -104 0
-55 -105 0
-51 -161 0
-52 -162 0
-53 -163 0
-54 -164 0
-55 -165 0
-51 -271 0
-52 -272 0
-53 -273 0
-54 -274 0
-55 -275 0
-51 -291 0
-52 -292 0
-53 -293 0
-54 -294 0
-55 -295 0
-51 -316 0
-52 -317 0
-53 -318 0
-54 -319 0
-55 -320 0
-51 -351 0
-52 -352 0
-53 -353 0
-54 -354 0
-55 -355 0
-51 -366 0
-52 -367 0
-53 -368 0
-54 -369 0
-55 -370 0
-51 -386 0
-52 -387 0
-53 -388 0
-54 -389 0
-55 -390 0
-51 -406 0
-52 -407 0
-53 -408 0
-54 -409 0
-55 -410 0
-51 -421 0
-52 -422 0
-53 -423 0
-54 -424 0
-55 -425 0
-51 -441 0
-52 -442 0
-53 -443 0
-54 -444 0
-55 -445 0
-51 -466 0
-52 -467 0
-53 -468 0
-54 -469 0
-55 -470 0
-51 -471 0
-52 -472 0
-53 -473 0
-54 -474 0
-55 -475 0
-56 -191 0
-57 -192 0
-58 -193 0
-59 -194 0
-60 -195 0
-56 -201 0
-57 -202 0
-58 -203 0
-59 -204 0
-60 -205 0
-56 -321 0
-57 -322 0
-58 -323 0
-59 -324 0
-60 -325 0
-56 -401 0
-57 -402 0
-58 -403 0
-59 -404 0
-60 -405 0
-56 -411 0
-57 -412 0
-58 -413 0
-59 -414 0
-60 -415 0
-56 -416 0
-57 -417 0
-58 -418 0
-59 -419 0
-60 -420 0
-56 -421 0
-57 -422 0
-58 -423 0
-59 -424 0
-60 -425 0
-61 -136 0
-62 -137 0
-63 -138 0
-64 -139 0
-65 -140 0
-61 -166 0
-62 -167 0
-63 -168 0
-64 -169 0
-65 -170 0
-61 -236 0
-62 -237 0
-63 -238 0
-64 -239 0
-65 -240 0
-61 -316 0
-62 -317 0
-63 -318 0
-64 -319 0
-65 -320 0
-61 -351 0
-62 -352 0
-63 -353 0
-64 -354 0
-65 -355 0
-66 -146 0
-67 -147 0
-68 -148 0
-69 -149 0
-70 -150 0
-66 -176 0
-67 -177 0
-68 -178 0
-69 -179 0
-70 -180 0
-66 -251 0
-67 -252 0
-68 -253 0
-69 -254 0
-70 -255 0
-66 -296 0
-67 -297 0
-68 -298 0
-69 -299 0
-70 -300 0
-66 -321 0
-67 -322 0
-68 -323 0
-69 -324 0
-70 -325 0
-66 -341 0
-67 -342 0
-68 -343 0
-69 -344 0
-70 -345 0
-66 -371 0
-67 -372 0
-68 -373 0
-69 -374 0
-70 -375 0
-66 -411 0
-67 -412 0
-68 -413 0
-69 -414 0
-70 -415 0
-66 -486 0
-67 -487 0
-68 -488 0
-69 -489 0
-70 -490 0
-66 -496 0
-67 -497 0
-68 -498 0
-69 -499 0
-70 -500 0
-71 -141 0
-72 -142 0
-73 -143 0
-74 -144 0
-75 -145 0
-71 -216 0
-72 -217 0
-73 -218 0
-74 -219 0
-75 -220 0
-71 -256 0
-72 -257 0
-73 -258 0
-74 -259 0
-75 -260 0
-71 -311 0
-72 -312 0
-73 -313 0
-74 -314 0
-75 -315 0
-76 -171 0
-77 -172 0
-78 -173 0
-79 -174 0
-80 -175 0
-76 -251 0
-77 -252 0
-78 -253 0
-79 -254 0
-80 -255 0
-76 -381 0
-77 -382 0
-78 -383 0
-79 -384 0
-80 -385 0
-76 -401 0
-77 -402 0
-78 -403 0
-79 -404 0
-80 -405 0
-76 -411 0
-77 -412 0
-78 -413 0
-79 -414 0
-80 -415 0
-76 -416 0
-77 -417 0
-78 -418 0
-79 -419 0
-80 -420 0
-81 -406 0
-82 -407 0
-83 -408 0
-84 -409 0
-85 -410 0
-86 -136 0
-87 -137 0
-88 -138 0
-89 -139 0
-90 -140 0
-86 -181 0
-87 -182 0
-88 -183 0
-89 -184 0
-90 -185 0
-86 -301 0
-87 -302 0
-88 -303 0
-89 -304 0
-90 -305 0
-86 -311 0
-87 -312 0
-88 -313 0
-89 -314 0
-90 -315 0
-86 -446 0
-87 -447 0
-88 -448 0
-89 -449 0
-90 -450 0
-91 -206 0
-92 -207 0
-93 -208 0
-94 -209 0
-95 -210 0
-91 -421 0
-92 -422 0
-93 -423 0
-94 -424 0
-95 -425 0
-91 -426 0
-92 -427 0
-93 -428 0
-94 -429 0
-95 -430 0
-91 -451 0
-92 -452 0
-93 -453 0
-94 -454 0
-95 -455 0
-91 -481 0
-92 -482 0
-93 -483 0
-94 -484 0
-95 -485 0
-96 -256 0
-97 -257 0
-98 -258 0
-99 -259 0
-100 -260 0
-96 -331 0
-97 -332 0
-98 -333 0
-99 -334 0
-100 -335 0
-96 -336 0
-97 -337 0
-98 -338 0
-99 -339 0
-100 -340 0
-96 -346 0
-97 -347 0
-98 -348 0
-99 -349 0
-100 -350 0
-96 -451 0
-97 -452 0
-98 -453 0
-99 -454 0
-100 -455 0
-96 -466 0
-97 -467 0
-98 -468 0
-99 -469 0
-100 -470 0
-96 -496 0
-97 -497 0
-98 -498 0
-99 -499 0
-100 -500 0
-101 -161 0
-102 -162 0
-103 -163 0
-104 -164 0
-105 -165 0
-101 -181 0
-102 -182 0
-103 -183 0
-104 -184 0
-105 -185 0
-101 -301 0
-102 -302 0
-103 -303 0
-104 -304 0
-105 -305 0
-101 -316 0
-102 -317 0
-103 -318 0
-104 -319 0
-105 -320 0
-101 -331 0
-102 -332 0
-103 -333 0
-104 -334 0
-105 -335 0
-101 -426 0
-102 -427 0
-103 -428 0
-104 -429 0
-105 -430 0
-106 -141 0
-107 -142 0
-108 -143 0
-109 -144 0
-110 -145 0
-106 -151 0
-107 -152 0
-108 -153 0
-109 -154 0
-110 -155 0
-106 -161 0
-107 -162 0
-108 -163 0
-109 -164 0
-110 -165 0
-106 -171 0
-107 -172 0
-108 -173 0
-109 -174 0
-110 -175 0
-106 -186 0
-107 -187 0
-108 -188 0
-109 -189 0
-110 -190 0
-106 -246 0
-107 -247 0
-108 -248 0
-109 -249 0
-110 -250 0
-106 -361 0
-107 -362 0
-108 -363 0
-109 -364 0
-110 -365 0
-106 -401 0
-107 -402 0
-108 -403 0
-109 -404 0
-110 -405 0
-106 -436 0
-107 -437 0
-108 -438 0
-109 -439 0
-110 -440 0
-111 -301 0
-112 -302 0
-113 -303 0
-114 -304 0
-115 -305 0
-111 -336 0
-112 -337 0
-113 -338 0
-114 -339 0
-115 -340 0
-111 -351 0
-112 -352 0
-113 -353 0
-114 -354 0
-115 -355 0
-111 -356 0
-112 -357 0
-113 -358 0
-114 -359 0
-115 -360 0
-111 -366 0
-112 -367 0
-113 -368 0
-114 -369 0
-115 -370 0
-111 -396 0
-112 -397 0
-113 -398 0
-114 -399 0
-115 -400 0
-111 -401 0
-112 -402 0
-113 -403 0
-114 -404 0
-115 -405 0
-111 -406 0
-112 -407 0
-113 -408 0
-114 -409 0
-115 -410 0
-111 -446 0
-112 -447 0
-113 -448 0
-114 -449 0
-115 -450 0
-111 -451 0
-112 -452 0
-113 -453 0
-114 -454 0
-115 -455 0
-111 -486 0
-112 -487 0
-113 -488 0
-114 -489 0
-115 -490 0
-111 -496 0
-112 -497 0
-113 -498 0
-114 -499 0
-115 -500 0
-116 -246 0
-117 -247 0
-118 -248 0
-119 -249 0
-120 -250 0
-116 -261 0
-117 -262 0
-118 -263 0
-119 -264 0
-120 -265 0
-116 -281 0
-117 -282 0
-118 -283 0
-119 -284 0
-120 -285 0
-116 -286 0
-117 -287 0
-118 -288 0
-119 -289 0
-120 -290 0
-116 -331 0
-117 -332 0
-118 -333 0
-119 -334 0
-120 -335 0
-116 -376 0
-117 -377 0
-118 -378 0
-119 -379 0
-120 -380 0
-116 -431 0
-117 -432 0
-118 -433 0
-119 -434 0
-120 -435 0
-116 -456 0
-117 -457 0
-118 -458 0
-119 -459 0
-120 -460 0
-121 -151 0
-122 -152 0
-123 -153 0
-124 -154 0
-125 -155 0
-121 -191 0
-122 -192 0
-123 -193 0
-124 -194 0
-125 -195 0
-121 -271 0
-122 -272 0
-123 -273 0
-124 -274 0
-125 -275 0
-121 -296 0
-122 -297 0
-123 -298 0
-124 -299 0
-125 -300 0
-121 -331 0
-122 -332 0
-123 -333 0
-124 -334 0
-125 -335 0
-121 -346 0
-122 -347 0
-123 -348 0
-124 -349 0
-125 -350 0
-121 -426 0
-122 -427 0
-123 -428 0
-124 -429 0
-125 -430 0
-121 -436 0
-122 -437 0
-123 -438 0
-124 -439 0
-125 -440 0
-121 -486 0
-122 -487 0
-123 -488 0
-124 -489 0
-125 -490 0
-126 -156 0
-127 -157 0
-128 -158 0
-129 -159 0
-130 -160 0
-126 -181 0
-127 -182 0
-128 -183 0
-129 -184 0
-130 -185 0
-126 -241 0
-127 -242 0
-128 -243 0
-129 -244 0
-130 -245 0
-126 -286 0
-127 -287 0
-128 -288 0
-129 -289 0
-130 -290 0
-126 -351 0
-127 -352 0
-128 -353 0
-129 -354 0
-130 -355 0
-126 -371 0
-127 -372 0
-128 -373 0
-129 -374 0
-130 -375 0
-126 -456 0
-127 -457 0
-128 -458 0
-129 -459 0
-130 -460 0
-126 -461 0
-127 -462 0
-128 -463 0
-129 -464 0
-130 -465 0
-126 -466 0
-127 -467 0
-128 -468 0
-129 -469 0
-130 -470 0
-131 -226 0
-132 -227 0
-133 -228 0
-134 -229 0
-135 -230 0
-131 -341 0
-132 -342 0
-133 -343 0
-134 -344 0
-135 -345 0
-136 -161 0
-137 -162 0
-138 -163 0
-139 -164 0
-140 -165 0
-136 -216 0
-137 -217 0
-138 -218 0
-139 -219 0
-140 -220 0
-136 -226 0
-137 -227 0
-138 -228 0
-139 -229 0
-140 -230 0
-136 -246 0
-137 -247 0
-138 -248 0
-139 -249 0
-140 -250 0
-136 -251 0
-137 -252 0
-138 -253 0
-139 -254 0
-140 -255 0
-136 -311 0
-137 -312 0
-138 -313 0
-139 -314 0
-140 -315 0
-136 -336 0
-137 -337 0
-138 -338 0
-139 -339 0
-140 -340 0
-136 -441 0
-137 -442 0
-138 -443 0
-139 -444 0
-140 -445 0
-141 -216 0
-142 -217 0
-143 -218 0
-144 -219 0
-145 -220 0
-141 -266 0
-142 -267 0
-143 -268 0
-144 -269 0
-145 -270 0
-141 -341 0
-142 -342 0
-143 -343 0
-144 -344 0
-145 -345 0
-146 -211 0
-147 -212 0
-148 -213 0
-149 -214 0
-150 -215 0
-146 -256 0
-147 -257 0
-148 -258 0
-149 -259 0
-150 -260 0
-146 -341 0
-147 -342 0
-148 -343 0
-149 -344 0
-150 -345 0
-146 -371 0
-147 -372 0
-148 -373 0
-149 -374 0
-150 -375 0
-146 -386 0
-147 -387 0
-148 -388 0
-149 -389 0
-150 -390 0
-146 -421 0
-147 -422 0
-148 -423 0
-149 -424 0
-150 -425 0
-146 -441 0
-147 -442 0
-148 -443 0
-149 -444 0
-150 -445 0
-146 -456 0
-147 -457 0
-148 -458 0
-149 -459 0
-150 -460 0
-146 -466 0
-147 -467 0
-148 -468 0
-149 -469 0
-150 -470 0
-146 -491 0
-147 -492 0
-148 -493 0
-149 -494 0
-150 -495 0
-151 -266 0
-152 -267 0
-153 -268 0
-154 -269 0
-155 -270 0
-151 -326 0
-152 -327 0
-153 -328 0
-154 -329 0
-155 -330 0
-151 -331 0
-152 -332 0
-153 -333 0
-154 -334 0
-155 -335 0
-156 -421 0
-157 -422 0
-158 -423 0
-159 -424 0
-160 -425 0
-156 -431 0
-157 -432 0
-158 -433 0
-159 -434 0
-160 -435 0
-161 -261 0
-162 -262 0
-163 -263 0
-164 -264 0
-165 -265 0
-161 -271 0
-162 -272 0
-163 -273 0
-164 -274 0
-165 -275 0
-161 -291 0
-162 -292 0
-163 -293 0
-164 -294 0
-165 -295 0
-161 -351 0
-162 -352 0
-163 -353 0
-164 -354 0
-165 -355 0
-161 -376 0
-162 -377 0
-163 -378 0
-164 -379 0
-165 -380 0
-161 -451 0
-162 -452 0
-163 -453 0
-164 -454 0
-165 -455 0
-166 -261 0
-167 -262 0
-168 -263 0
-169 -264 0
-170 -265 0
-166 -271 0
-167 -272 0
-168 -273 0
-169 -274 0
-170 -275 0
-166 -291 0
-167 -292 0
-168 -293 0
-169 -294 0
-170 -295 0
-166 -311 0
-167 -312 0
-168 -313 0
-169 -314 0
-170 -315 0
-166 -411 0
-167 -412 0
-168 -413 0
-169 -414 0
-170 -415 0
-166 -446 0
-167 -447 0
-168 -448 0
-169 -449 0
-170 -450 0
-166 -491 0
-167 -492 0
-168 -493 0
-169 -494 0
-170 -495 0
-171 -201 0
-172 -202 0
-173 -203 0
-174 -204 0
-175 -205 0
-171 -246 0
-172 -247 0
-173 -248 0
-174 -249 0
-175 -250 0
-171 -346 0
-172 -347 0
-173 -348 0
-174 -349 0
-175 -350 0
-171 -366 0
-172 -367 0
-173 -368 0
-174 -369 0
-175 -370 0
-176 -261 0
-177 -262 0
-178 -263 0
-179 -264 0
-180 -265 0
-176 -396 0
-177 -397 0
-178 -398 0
-179 -399 0
-180 -400 0
-176 -401 0
-177 -402 0
-178 -403 0
-179 -404 0
-180 -405 0
-176 -456 0
-177 -457 0
-178 -458 0
-179 -459 0
-180 -460 0
-176 -486 0
-177 -487 0
-178 -488 0
-179 -489 0
-180 -490 0
-181 -316 0
-182 -317 0
-183 -318 0
-184 -319 0
-185 -320 0
-181 -361 0
-182 -362 0
-183 -363 0
-184 -364 0
-185 -365 0
-181 -446 0
-182 -447 0
-183 -448 0
-184 -449 0
-185 -450 0
-186 -276 0
-187 -277 0
-188 -278 0
-189 -279 0
-190 -280 0
-186 -421 0
-187 -422 0
-188 -423 0
-189 -424 0
-190 -425 0
-186 -426 0
-187 -427 0
-188 -428 0
-189 -429 0
-190 -430 0
-186 -456 0
-187 -457 0
-188 -458 0
-189 -459 0
-190 -460 0
-186 -476 0
-187 -477 0
-188 -478 0
-189 -479 0
-190 -480 0
-191 -381 0
-192 -382 0
-193 -383 0
-194 -384 0
-195 -385 0
-191 -406 0
-192 -407 0
-193 -408 0
-194 -409 0
-195 -410 0
-191 -456 0
-192 -457 0
-193 -458 0
-194 -459 0
-195 -460 0
-191 -486 0
-192 -487 0
-193 -488 0
-194 -489 0
-195 -490 0
-196 -271 0
-197 -272 0
-198 -273 0
-199 -274 0
-200 -275 0
-196 -326 0
-197 -327 0
-198 -328 0
-199 -329 0
-200 -330 0
-196 -446 0
-197 -447 0
-198 -448 0
-199 -449 0
-200 -450 0
-201 -281 0
-202 -282 0
-203 -283 0
-204 -284 0
-205 -285 0
-201 -401 0
-202 -402 0
-203 -403 0
-204 -404 0
-205 -405 0
-201 -416 0
-202 -417 0
-203 -418 0
-204 -419 0
-205 -420 0
-201 -421 0
-202 -422 0
-203 -423 0
-204 -424 0
-205 -425 0
-206 -236 0
-207 -237 0
-208 -238 0
-209 -239 0
-210 -240 0
-206 -256 0
-207 -257 0
-208 -258 0
-209 -259 0
-210 -260 0
-206 -261 0
-207 -262 0
-208 -263 0
-209 -264 0
-210 -265 0
-206 -421 0
-207 -422 0
-208 -423 0
-209 -424 0
-210 -425 0
-206 -451 0
-207 -452 0
-208 -453 0
-209 -454 0
-210 -455 0
-211 -276 0
-212 -277 0
-213 -278 0
-214 -279 0
-215 -280 0
-211 -306 0
-212 -307 0
-213 -308 0
-214 -309 0
-215 -310 0
-211 -326 0
-212 -327 0
-213 -328 0
-214 -329 0
-215 -330 0
-211 -436 0
-212 -437 0
-213 -438 0
-214 -439 0
-215 -440 0
-211 -466 0
-212 -467 0
-213 -468 0
-214 -469 0
-215 -470 0
-211 -471 0
-212 -472 0
-213 -473 0
-214 -474 0
-215 -475 0
-211 -496 0
-212 -497 0
-213 -498 0
-214 -499 0
-215 -500 0
-216 -271 0
-217 -272 0
-218 -273 0
-219 -274 0
-220 -275 0
-216 -316 0
-217 -317 0
-218 -318 0
-219 -319 0
-220 -320 0
-216 -326 0
-217 -327 0
-218 -328 0
-219 -329 0
-220 -330 0
-216 -356 0
-217 -357 0
-218 -358 0
-219 -359 0
-220 -360 0
-221 -261 0
-222 -262 0
-223 -263 0
-224 -264 0
-225 -265 0
-226 -256 0
-227 -257 0
-228 -258 0
-229 -259 0
-230 -260 0
-226 -311 0
-227 -312 0
-228 -313 0
-229 -314 0
-230 -315 0
-226 -376 0
-227 -377 0
-228 -378 0
-229 -379 0
-230 -380 0
-231 -341 0
-232 -342 0
-233 -343 0
-234 -344 0
-235 -345 0
-231 -356 0
-232 -357 0
-233 -358 0
-234 -359 0
-235 -360 0
-231 -481 0
-232 -482 0
-233 -483 0
-234 -484 0
-235 -485 0
-236 -281 0
-237 -282 0
-238 -283 0
-239 -284 0
-240 -285 0
-236 -326 0
-237 -327 0
-238 -328 0
-239 -329 0
-240 -330 0
-236 -341 0
-237 -342 0
-238 -343 0
-239 -344 0
-240 -345 0
-236 -386 0
-237 -387 0
-238 -388 0
-239 -389 0
-240 -390 0
-236 -421 0
-237 -422 0
-238 -423 0
-239 -424 0
-240 -425 0
-236 -486 0
-237 -487 0
-238 -488 0
-239 -489 0
-240 -490 0
-241 -306 0
-242 -307 0
-243 -308 0
-244 -309 0
-245 -310 0
-241 -401 0
-242 -402 0
-243 -403 0
-244 -404 0
-245 -405 0
-246 -351 0
-247 -352 0
-248 -353 0
-249 -354 0
-250 -355 0
-246 -376 0
-247 -377 0
-248 -378 0
-249 -379 0
-250 -380 0
-246 -466 0
-247 -467 0
-248 -468 0
-249 -469 0
-250 -470 0
-251 -346 0
-252 -347 0
-253 -348 0
-254 -349 0
-255 -350 0
-251 -356 0
-252 -357 0
-253 -358 0
-254 -359 0
-255 -360 0
-251 -386 0
-252 -387 0
-253 -388 0
-254 -389 0
-255 -390 0
-256 -301 0
-257 -302 0
-258 -303 0
-259 -304 0
-260 -305 0
-256 -331 0
-257 -332 0
-258 -333 0
-259 -334 0
-260 -335 0
-261 -376 0
-262 -377 0
-263 -378 0
-264 -379 0
-265 -380 0
-261 -411 0
-262 -412 0
-263 -413 0
-264 -414 0
-265 -415 0
-261 -421 0
-262 -422 0
-263 -423 0
-264 -424 0
-265 -425 0
-261 -456 0
-262 -457 0
-263 -458 0
-264 -459 0
-265 -460 0
-261 -496 0
-262 -497 0
-263 -498 0
-264 -499 0
-265 -500 0
-266 -311 0
-267 -312 0
-268 -313 0
-269 -314 0
-270 -315 0
-266 -351 0
-267 -352 0
-268 -353 0
-269 -354 0
-270 -355 0
-266 -426 0
-267 -427 0
-268 -428 0
-269 -429 0
-270 -430 0
-266 -486 0
-267 -487 0
-268 -488 0
-269 -489 0
-270 -490 0
-271 -361 0
-272 -362 0
-273 -363 0
-274 -364 0
-275 -365 0
-271 -366 0
-272 -367 0
-273 -368 0
-274 -369 0
-275 -370 0
-271 -396 0
-272 -397 0
-273 -398 0
-274 -399 0
-275 -400 0
-271 -426 0
-272 -427 0
-273 -428 0
-274 -429 0
-275 -430 0
-271 -461 0
-272 -462 0
-273 -463 0
-274 -464 0
-275 -465 0
-276 -311 0
-277 -312 0
-278 -313 0
-279 -314 0
-280 -315 0
-276 -341 0
-277 -342 0
-278 -343 0
-279 -344 0
-280 -345 0
-276 -346 0
-277 -347 0
-278 -348 0
-279 -349 0
-280 -350 0
-276 -366 0
-277 -367 0
-278 -368 0
-279 -369 0
-280 -370 0
-276 -446 0
-277 -447 0
-278 -448 0
-279 -449 0
-280 -450 0
-276 -466 0
-277 -467 0
-278 -468 0
-279 -469 0
-280 -470 0
-276 -471 0
-277 -472 0
-278 -473 0
-279 -474 0
-280 -475 0
-276 -486 0
-277 -487 0
-278 -488 0
-279 -489 0
-280 -490 0
-281 -331 0
-282 -332 0
-283 -333 0
-284 -334 0
-285 -335 0
-281 -346 0
-282 -347 0
-283 -348 0
-284 -349 0
-285 -350 0
-281 -391 0
-282 -392 0
-283 -393 0
-284 -394 0
-285 -395 0
-281 -476 0
-282 -477 0
-283 -478 0
-284 -479 0
-285 -480 0
-286 -316 0
-287 -317 0
-288 -318 0
-289 -319 0
-290 -320 0
-286 -421 0
-287 -422 0
-288 -423 0
-289 -424 0
-290 -425 0
-286 -461 0
-287 -462 0
-288 -463 0
-289 -464 0
-290 -465 0
-291 -316 0
-292 -317 0
-293 -318 0
-294 -319 0
-295 -320 0
-291 -481 0
-292 -482 0
-293 -483 0
-294 -484 0
-295 -485 0
-296 -356 0
-297 -357 0
-298 -358 0
-299 -359 0
-300 -360 0
-296 -366 0
-297 -367 0
-298 -368 0
-299 -369 0
-300 -370 0
-296 -431 0
-297 -432 0
-298 -433 0
-299 -434 0
-300 -435 0
-301 -336 0
-302 -337 0
-303 -338 0
-304 -339 0
-305 -340 0
-301 -466 0
-302 -467 0
-303 -468 0
-304 -469 0
-305 -470 0
-306 -341 0
-307 -342 0
-308 -343 0
-309 -344 0
-310 -345 0
-306 -361 0
-307 -362 0
-308 -363 0
-309 -364 0
-310 -365 0
-306 -431 0
-307 -432 0
-308 -433 0
-309 -434 0
-310 -435 0
-311 -381 0
-312 -382 0
-313 -383 0
-314 -384 0
-315 -385 0
-316 -361 0
-317 -362 0
-318 -363 0
-319 -364 0
-320 -365 0
-316 -461 0
-317 -462 0
-318 -463 0
-319 -464 0
-320 -465 0
-321 -351 0
-322 -352 0
-323 -353 0
-324 -354 0
-325 -355 0
-321 -361 0
-322 -362 0
-323 -363 0
-324 -364 0
-325 -365 0
-321 -366 0
-322 -367 0
-323 -368 0
-324 -369 0
-325 -370 0
-321 -381 0
-322 -382 0
-323 -383 0
-324 -384 0
-325 -385 0
-331 -401 0
-332 -402 0
-333 -403 0
-334 -404 0
-335 -405 0
-336 -381 0
-337 -382 0
-338 -383 0
-339 -384 0
-340 -385 0
-346 -416 0
-347 -417 0
-348 -418 0
-349 -419 0
-350 -420 0
-346 -436 0
-347 -437 0
-348 -438 0
-349 -439 0
-350 -440 0
-346 -441 0
-347 -442 0
-348 -443 0
-349 -444 0
-350 -445 0
-346 -451 0
-347 -452 0
-348 -453 0
-349 -454 0
-350 -455 0
-351 -446 0
-352 -447 0
-353 -448 0
-354 -449 0
-355 -450 0
-351 -466 0
-352 -467 0
-353 -468 0
-354 -469 0
-355 -470 0
-351 -496 0
-352 -497 0
-353 -498 0
-354 -499 0
-355 -500 0
-356 -381 0
-357 -382 0
-358 -383 0
-359 -384 0
-360 -385 0
-356 -396 0
-357 -397 0
-358 -398 0
-359 -399 0
-360 -400 0
-356 -401 0
-357 -402 0
-358 -403 0
-359 -404 0
-360 -405 0
-356 -431 0
-357 -432 0
-358 -433 0
-359 -434 0
-360 -435 0
-356 -461 0
-357 -462 0
-358 -463 0
-359 -464 0
-360 -465 0
-356 -486 0
-357 -487 0
-358 -488 0
-359 -489 0
-360 -490 0
-361 -391 0
-362 -392 0
-363 -393 0
-364 -394 0
-365 -395 0
-361 -436 0
-362 -437 0
-363 -438 0
-364 -439 0
-365 -440 0
-361 -446 0
-362 -447 0
-363 -448 0
-364 -449 0
-365 -450 0
-361 -456 0
-362 -457 0
-363 -458 0
-364 -459 0
-365 -460 0
-366 -416 0
-367 -417 0
-368 -418 0
-369 -419 0
-370 -420 0
-366 -441 0
-367 -442 0
-368 -443 0
-369 -444 0
-370 -445 0
-371 -426 0
-372 -427 0
-373 -428 0
-374 -429 0
-375 -430 0
-376 -471 0
-377 -472 0
-378 -473 0
-379 -474 0
-380 -475 0
-386 -446 0
-387 -447 0
-388 -448 0
-389 -449 0
-390 -450 0
-396 -436 0
-397 -437 0
-398 -438 0
-399 -439 0
-400 -440 0
-396 -451 0
-397 -452 0
-398 -453 0
-399 -454 0
-400 -455 0
-406 -461 0
-407 -462 0
-408 -463 0
-409 -464 0
-410 -465 0
-411 -476 0
-412 -477 0
-413 -478 0
-414 -479 0
-415 -480 0
-416 -441 0
-417 -442 0
-418 -443 0
-419 -444 0
-420 -445 0
-431 -461 0
-432 -462 0
-433 -463 0
-434 -464 0
-435 -465 0
-446 -476 0
-447 -477 0
-448 -478 0
-449 -479 0
-450 -480 0
-461 -496 0
-462 -497 0
-463 -498 0
-464 -499 0
-465 -500 0
